8465
1, 18, 31, 21, 23, 20, 50, 30, 42, 2, 7, 17, 3, 19, 45, 41, 8, 10, 9, 43, 33, 4, 5, 24, 48, 46, 16, 29, 47, 26, 28, 27, 13, 14, 52, 11, 51, 12, 25, 6, 15, 38, 37, 40, 39, 36, 34, 44, 35, 32, 49, 22
